5493
5960
4938
9341
6346
1130
1317
5195
7582
2090
8706
7704
5433
5801
601
1191
1670
6261
1190
1999
559
2547
6551
4977
7621
1319
3246
393
7117
8753
944
5533
2561
4830
2014
5895
9567
928
6370
4568
1097
6733
8440
6903
9157
2031
9922
5026
2848
8444
